minimize
obj: 60 p_buy_1_ + 60 p_buy_2_ + 60 p_buy_3_ + 60 p_buy_4_ + 60 p_buy_5_ + 60 p_buy_6_ + 60 p_buy_7_ + 60 p_buy_8_
subject to
Confort_low_1,1_: -1 x_1,1_ <= -2
Confort_low_2,1_: -1 x_3,1_ <= -2
Confort_low_3,1_: -1 x_5,1_ <= 0
Confort_low_4,1_: -1 x_7,1_ <= -2
Confort_low_5,1_: -1 x_9,1_ <= 40
Confort_low_1,2_: -1 x_1,2_ <= -2
Confort_low_2,2_: -1 x_3,2_ <= -2
Confort_low_3,2_: -1 x_5,2_ <= 0
Confort_low_4,2_: -1 x_7,2_ <= -2
Confort_low_5,2_: -1 x_9,2_ <= 40
Confort_low_1,3_: -1 x_1,3_ <= -2
Confort_low_2,3_: -1 x_3,3_ <= -2
Confort_low_3,3_: -1 x_5,3_ <= 0
Confort_low_4,3_: -1 x_7,3_ <= -2
Confort_low_5,3_: -1 x_9,3_ <= 40
Confort_low_1,4_: -1 x_1,4_ <= -2
Confort_low_2,4_: -1 x_3,4_ <= -2
Confort_low_3,4_: -1 x_5,4_ <= 0
Confort_low_4,4_: -1 x_7,4_ <= -2
Confort_low_5,4_: -1 x_9,4_ <= 40
Confort_low_1,5_: -1 x_1,5_ <= -2
Confort_low_2,5_: -1 x_3,5_ <= -2
Confort_low_3,5_: -1 x_5,5_ <= 0
Confort_low_4,5_: -1 x_7,5_ <= -2
Confort_low_5,5_: -1 x_9,5_ <= 40
Confort_low_1,6_: -1 x_1,6_ <= -2
Confort_low_2,6_: -1 x_3,6_ <= -2
Confort_low_3,6_: -1 x_5,6_ <= 0
Confort_low_4,6_: -1 x_7,6_ <= -2
Confort_low_5,6_: -1 x_9,6_ <= 40
Confort_low_1,7_: -1 x_1,7_ <= -2
Confort_low_2,7_: -1 x_3,7_ <= -2
Confort_low_3,7_: -1 x_5,7_ <= 0
Confort_low_4,7_: -1 x_7,7_ <= -2
Confort_low_5,7_: -1 x_9,7_ <= 40
Confort_low_1,8_: -1 x_1,8_ <= -2
Confort_low_2,8_: -1 x_3,8_ <= -2
Confort_low_3,8_: -1 x_5,8_ <= 0
Confort_low_4,8_: -1 x_7,8_ <= -2
Confort_low_5,8_: -1 x_9,8_ <= 40
Confort_hig_1,1_: 1 x_1,1_ <= 8
Confort_hig_2,1_: 1 x_3,1_ <= 7
Confort_hig_3,1_: 1 x_5,1_ <= 9
Confort_hig_4,1_: 1 x_7,1_ <= 7
Confort_hig_5,1_: 1 x_9,1_ <= -18
Confort_hig_1,2_: 1 x_1,2_ <= 8
Confort_hig_2,2_: 1 x_3,2_ <= 7
Confort_hig_3,2_: 1 x_5,2_ <= 9
Confort_hig_4,2_: 1 x_7,2_ <= 7
Confort_hig_5,2_: 1 x_9,2_ <= -18
Confort_hig_1,3_: 1 x_1,3_ <= 8
Confort_hig_2,3_: 1 x_3,3_ <= 7
Confort_hig_3,3_: 1 x_5,3_ <= 9
Confort_hig_4,3_: 1 x_7,3_ <= 7
Confort_hig_5,3_: 1 x_9,3_ <= -18
Confort_hig_1,4_: 1 x_1,4_ <= 8
Confort_hig_2,4_: 1 x_3,4_ <= 7
Confort_hig_3,4_: 1 x_5,4_ <= 9
Confort_hig_4,4_: 1 x_7,4_ <= 7
Confort_hig_5,4_: 1 x_9,4_ <= -18
Confort_hig_1,5_: 1 x_1,5_ <= 8
Confort_hig_2,5_: 1 x_3,5_ <= 7
Confort_hig_3,5_: 1 x_5,5_ <= 9
Confort_hig_4,5_: 1 x_7,5_ <= 7
Confort_hig_5,5_: 1 x_9,5_ <= -18
Confort_hig_1,6_: 1 x_1,6_ <= 8
Confort_hig_2,6_: 1 x_3,6_ <= 7
Confort_hig_3,6_: 1 x_5,6_ <= 9
Confort_hig_4,6_: 1 x_7,6_ <= 7
Confort_hig_5,6_: 1 x_9,6_ <= -18
Confort_hig_1,7_: 1 x_1,7_ <= 8
Confort_hig_2,7_: 1 x_3,7_ <= 7
Confort_hig_3,7_: 1 x_5,7_ <= 9
Confort_hig_4,7_: 1 x_7,7_ <= 7
Confort_hig_5,7_: 1 x_9,7_ <= -18
Confort_hig_1,8_: 1 x_1,8_ <= 8
Confort_hig_2,8_: 1 x_3,8_ <= 7
Confort_hig_3,8_: 1 x_5,8_ <= 9
Confort_hig_4,8_: 1 x_7,8_ <= 7
Confort_hig_5,8_: 1 x_9,8_ <= -18
Big_M_freezer1_1_: 1 x_9,1_ - 1 sp_5,1_ - 1000000 __freezer_1_ <= 1
Big_M_freezer1_2_: 1 x_9,2_ - 1 sp_5,2_ - 1000000 __freezer_2_ <= 1
Big_M_freezer1_3_: 1 x_9,3_ - 1 sp_5,3_ - 1000000 __freezer_3_ <= 1
Big_M_freezer1_4_: 1 x_9,4_ - 1 sp_5,4_ - 1000000 __freezer_4_ <= 1
Big_M_freezer1_5_: 1 x_9,5_ - 1 sp_5,5_ - 1000000 __freezer_5_ <= 1
Big_M_freezer1_6_: 1 x_9,6_ - 1 sp_5,6_ - 1000000 __freezer_6_ <= 1
Big_M_freezer1_7_: 1 x_9,7_ - 1 sp_5,7_ - 1000000 __freezer_7_ <= 1
Big_M_freezer1_8_: 1 x_9,8_ - 1 sp_5,8_ - 1000000 __freezer_8_ <= 1
Big_M_freezer2_1_: -1 x_9,1_ + 1 sp_5,1_ + 1000000 __freezer_1_ <= 1000001
Big_M_freezer2_2_: -1 x_9,2_ + 1 sp_5,2_ + 1000000 __freezer_2_ <= 1000001
Big_M_freezer2_3_: -1 x_9,3_ + 1 sp_5,3_ + 1000000 __freezer_3_ <= 1000001
Big_M_freezer2_4_: -1 x_9,4_ + 1 sp_5,4_ + 1000000 __freezer_4_ <= 1000001
Big_M_freezer2_5_: -1 x_9,5_ + 1 sp_5,5_ + 1000000 __freezer_5_ <= 1000001
Big_M_freezer2_6_: -1 x_9,6_ + 1 sp_5,6_ + 1000000 __freezer_6_ <= 1000001
Big_M_freezer2_7_: -1 x_9,7_ + 1 sp_5,7_ + 1000000 __freezer_7_ <= 1000001
Big_M_freezer2_8_: -1 x_9,8_ + 1 sp_5,8_ + 1000000 __freezer_8_ <= 1000001
Big_M_fridge_1_: 1 u_req_1,1_ + 1 u_req_2,1_ + 1 u_req_3,1_ + 1 u_req_4,1_ - 1000000 __fridge_1_ <= 5000
Big_M_fridge_2_: 1 u_req_1,2_ + 1 u_req_2,2_ + 1 u_req_3,2_ + 1 u_req_4,2_ - 1000000 __fridge_2_ <= 5000
Big_M_fridge_3_: 1 u_req_1,3_ + 1 u_req_2,3_ + 1 u_req_3,3_ + 1 u_req_4,3_ - 1000000 __fridge_3_ <= 5000
Big_M_fridge_4_: 1 u_req_1,4_ + 1 u_req_2,4_ + 1 u_req_3,4_ + 1 u_req_4,4_ - 1000000 __fridge_4_ <= 5000
Big_M_fridge_5_: 1 u_req_1,5_ + 1 u_req_2,5_ + 1 u_req_3,5_ + 1 u_req_4,5_ - 1000000 __fridge_5_ <= 5000
Big_M_fridge_6_: 1 u_req_1,6_ + 1 u_req_2,6_ + 1 u_req_3,6_ + 1 u_req_4,6_ - 1000000 __fridge_6_ <= 5000
Big_M_fridge_7_: 1 u_req_1,7_ + 1 u_req_2,7_ + 1 u_req_3,7_ + 1 u_req_4,7_ - 1000000 __fridge_7_ <= 5000
Big_M_fridge_8_: 1 u_req_1,8_ + 1 u_req_2,8_ + 1 u_req_3,8_ + 1 u_req_4,8_ - 1000000 __fridge_8_ <= 5000
Compressor_req_bound1_1_: -1 u_req_1,1_ - 1 u_req_2,1_ - 1 u_req_3,1_ - 1 u_req_4,1_ + 1 p1_1_ <= 0
Compressor_req_bound1_2_: -1 u_req_1,2_ - 1 u_req_2,2_ - 1 u_req_3,2_ - 1 u_req_4,2_ + 1 p1_2_ <= 0
Compressor_req_bound1_3_: -1 u_req_1,3_ - 1 u_req_2,3_ - 1 u_req_3,3_ - 1 u_req_4,3_ + 1 p1_3_ <= 0
Compressor_req_bound1_4_: -1 u_req_1,4_ - 1 u_req_2,4_ - 1 u_req_3,4_ - 1 u_req_4,4_ + 1 p1_4_ <= 0
Compressor_req_bound1_5_: -1 u_req_1,5_ - 1 u_req_2,5_ - 1 u_req_3,5_ - 1 u_req_4,5_ + 1 p1_5_ <= 0
Compressor_req_bound1_6_: -1 u_req_1,6_ - 1 u_req_2,6_ - 1 u_req_3,6_ - 1 u_req_4,6_ + 1 p1_6_ <= 0
Compressor_req_bound1_7_: -1 u_req_1,7_ - 1 u_req_2,7_ - 1 u_req_3,7_ - 1 u_req_4,7_ + 1 p1_7_ <= 0
Compressor_req_bound1_8_: -1 u_req_1,8_ - 1 u_req_2,8_ - 1 u_req_3,8_ - 1 u_req_4,8_ + 1 p1_8_ <= 0
Compressor_req_bound2_1,1_: 1 u_1,1_ - 1 u_req_1,1_ <= 0
Compressor_req_bound2_2,1_: 1 u_2,1_ - 1 u_req_2,1_ <= 0
Compressor_req_bound2_3,1_: 1 u_3,1_ - 1 u_req_3,1_ <= 0
Compressor_req_bound2_4,1_: 1 u_4,1_ - 1 u_req_4,1_ <= 0
Compressor_req_bound2_1,2_: 1 u_1,2_ - 1 u_req_1,2_ <= 0
Compressor_req_bound2_2,2_: 1 u_2,2_ - 1 u_req_2,2_ <= 0
Compressor_req_bound2_3,2_: 1 u_3,2_ - 1 u_req_3,2_ <= 0
Compressor_req_bound2_4,2_: 1 u_4,2_ - 1 u_req_4,2_ <= 0
Compressor_req_bound2_1,3_: 1 u_1,3_ - 1 u_req_1,3_ <= 0
Compressor_req_bound2_2,3_: 1 u_2,3_ - 1 u_req_2,3_ <= 0
Compressor_req_bound2_3,3_: 1 u_3,3_ - 1 u_req_3,3_ <= 0
Compressor_req_bound2_4,3_: 1 u_4,3_ - 1 u_req_4,3_ <= 0
Compressor_req_bound2_1,4_: 1 u_1,4_ - 1 u_req_1,4_ <= 0
Compressor_req_bound2_2,4_: 1 u_2,4_ - 1 u_req_2,4_ <= 0
Compressor_req_bound2_3,4_: 1 u_3,4_ - 1 u_req_3,4_ <= 0
Compressor_req_bound2_4,4_: 1 u_4,4_ - 1 u_req_4,4_ <= 0
Compressor_req_bound2_1,5_: 1 u_1,5_ - 1 u_req_1,5_ <= 0
Compressor_req_bound2_2,5_: 1 u_2,5_ - 1 u_req_2,5_ <= 0
Compressor_req_bound2_3,5_: 1 u_3,5_ - 1 u_req_3,5_ <= 0
Compressor_req_bound2_4,5_: 1 u_4,5_ - 1 u_req_4,5_ <= 0
Compressor_req_bound2_1,6_: 1 u_1,6_ - 1 u_req_1,6_ <= 0
Compressor_req_bound2_2,6_: 1 u_2,6_ - 1 u_req_2,6_ <= 0
Compressor_req_bound2_3,6_: 1 u_3,6_ - 1 u_req_3,6_ <= 0
Compressor_req_bound2_4,6_: 1 u_4,6_ - 1 u_req_4,6_ <= 0
Compressor_req_bound2_1,7_: 1 u_1,7_ - 1 u_req_1,7_ <= 0
Compressor_req_bound2_2,7_: 1 u_2,7_ - 1 u_req_2,7_ <= 0
Compressor_req_bound2_3,7_: 1 u_3,7_ - 1 u_req_3,7_ <= 0
Compressor_req_bound2_4,7_: 1 u_4,7_ - 1 u_req_4,7_ <= 0
Compressor_req_bound2_1,8_: 1 u_1,8_ - 1 u_req_1,8_ <= 0
Compressor_req_bound2_2,8_: 1 u_2,8_ - 1 u_req_2,8_ <= 0
Compressor_req_bound2_3,8_: 1 u_3,8_ - 1 u_req_3,8_ <= 0
Compressor_req_bound2_4,8_: 1 u_4,8_ - 1 u_req_4,8_ <= 0
PV_balance_1_: 1 PVused_1_ + 1 PVcurt_1_ <= 0
PV_balance_2_: 1 PVused_2_ + 1 PVcurt_2_ <= 0
PV_balance_3_: 1 PVused_3_ + 1 PVcurt_3_ <= 0
PV_balance_4_: 1 PVused_4_ + 1 PVcurt_4_ <= 0
PV_balance_5_: 1 PVused_5_ + 1 PVcurt_5_ <= 0
PV_balance_6_: 1 PVused_6_ + 1 PVcurt_6_ <= 0
PV_balance_7_: 1 PVused_7_ + 1 PVcurt_7_ <= 0
PV_balance_8_: 1 PVused_8_ + 1 PVcurt_8_ <= 0
Power_sell_1_: 1 p_sell_1_ + 1 PVused_1_ <= 0
Power_sell_2_: 1 p_sell_2_ + 1 PVused_2_ <= 0
Power_sell_3_: 1 p_sell_3_ + 1 PVused_3_ <= 0
Power_sell_4_: 1 p_sell_4_ + 1 PVused_4_ <= 0
Power_sell_5_: 1 p_sell_5_ + 1 PVused_5_ <= 0
Power_sell_6_: 1 p_sell_6_ + 1 PVused_6_ <= 0
Power_sell_7_: 1 p_sell_7_ + 1 PVused_7_ <= 0
Power_sell_8_: 1 p_sell_8_ + 1 PVused_8_ <= 0
Gain_1,1_: -2500 x_1,1_ + 2500 sp_1,1_ + 1 u_req_1,1_ >= 0
Gain_2,1_: -2500 x_3,1_ + 2500 sp_2,1_ + 1 u_req_2,1_ >= 0
Gain_3,1_: -2500 x_5,1_ + 2500 sp_3,1_ + 1 u_req_3,1_ >= 0
Gain_4,1_: -2500 x_7,1_ + 2500 sp_4,1_ + 1 u_req_4,1_ >= 0
Gain_1,2_: -2500 x_1,2_ + 2500 sp_1,2_ + 1 u_req_1,2_ >= 0
Gain_2,2_: -2500 x_3,2_ + 2500 sp_2,2_ + 1 u_req_2,2_ >= 0
Gain_3,2_: -2500 x_5,2_ + 2500 sp_3,2_ + 1 u_req_3,2_ >= 0
Gain_4,2_: -2500 x_7,2_ + 2500 sp_4,2_ + 1 u_req_4,2_ >= 0
Gain_1,3_: -2500 x_1,3_ + 2500 sp_1,3_ + 1 u_req_1,3_ >= 0
Gain_2,3_: -2500 x_3,3_ + 2500 sp_2,3_ + 1 u_req_2,3_ >= 0
Gain_3,3_: -2500 x_5,3_ + 2500 sp_3,3_ + 1 u_req_3,3_ >= 0
Gain_4,3_: -2500 x_7,3_ + 2500 sp_4,3_ + 1 u_req_4,3_ >= 0
Gain_1,4_: -2500 x_1,4_ + 2500 sp_1,4_ + 1 u_req_1,4_ >= 0
Gain_2,4_: -2500 x_3,4_ + 2500 sp_2,4_ + 1 u_req_2,4_ >= 0
Gain_3,4_: -2500 x_5,4_ + 2500 sp_3,4_ + 1 u_req_3,4_ >= 0
Gain_4,4_: -2500 x_7,4_ + 2500 sp_4,4_ + 1 u_req_4,4_ >= 0
Gain_1,5_: -2500 x_1,5_ + 2500 sp_1,5_ + 1 u_req_1,5_ >= 0
Gain_2,5_: -2500 x_3,5_ + 2500 sp_2,5_ + 1 u_req_2,5_ >= 0
Gain_3,5_: -2500 x_5,5_ + 2500 sp_3,5_ + 1 u_req_3,5_ >= 0
Gain_4,5_: -2500 x_7,5_ + 2500 sp_4,5_ + 1 u_req_4,5_ >= 0
Gain_1,6_: -2500 x_1,6_ + 2500 sp_1,6_ + 1 u_req_1,6_ >= 0
Gain_2,6_: -2500 x_3,6_ + 2500 sp_2,6_ + 1 u_req_2,6_ >= 0
Gain_3,6_: -2500 x_5,6_ + 2500 sp_3,6_ + 1 u_req_3,6_ >= 0
Gain_4,6_: -2500 x_7,6_ + 2500 sp_4,6_ + 1 u_req_4,6_ >= 0
Gain_1,7_: -2500 x_1,7_ + 2500 sp_1,7_ + 1 u_req_1,7_ >= 0
Gain_2,7_: -2500 x_3,7_ + 2500 sp_2,7_ + 1 u_req_2,7_ >= 0
Gain_3,7_: -2500 x_5,7_ + 2500 sp_3,7_ + 1 u_req_3,7_ >= 0
Gain_4,7_: -2500 x_7,7_ + 2500 sp_4,7_ + 1 u_req_4,7_ >= 0
Gain_1,8_: -2500 x_1,8_ + 2500 sp_1,8_ + 1 u_req_1,8_ >= 0
Gain_2,8_: -2500 x_3,8_ + 2500 sp_2,8_ + 1 u_req_2,8_ >= 0
Gain_3,8_: -2500 x_5,8_ + 2500 sp_3,8_ + 1 u_req_3,8_ >= 0
Gain_4,8_: -2500 x_7,8_ + 2500 sp_4,8_ + 1 u_req_4,8_ >= 0
Dynamics: 1 x_1,1_ + 0.00012197622602822021 u_1,1_ = 3.033177533479676
Dynamics_1: 1 x_2,1_ + 1.2432005842664846e-6 u_1,1_ = 3.0003381505589206
Dynamics_2: 1 x_3,1_ + 0.00014581844320778542 u_2,1_ = 4.032663331278544
Dynamics_3: 1 x_4,1_ + 1.9176209149584723e-6 u_2,1_ = 4.000429547084951
Dynamics_4: 1 x_5,1_ + 9.797989372063993e-5 u_3,1_ = 3.0333131638650177
Dynamics_5: 1 x_6,1_ + 9.149807652612172e-7 u_3,1_ = 3.0003110934601884
Dynamics_6: 1 x_7,1_ + 0.00013279111380876888 u_4,1_ = 5.035853600728368
Dynamics_7: 1 x_8,1_ + 1.5301711624557482e-6 u_4,1_ = 5.000413146213862
Dynamics_8: 1 x_9,1_ + 1.0020721792423641 __freezer_1_ = -18.881194322429025
Dynamics_9: 1 x_10,1_ + 0.01953636599408992 __freezer_1_ = -18.997683768447743
Dynamics_10: 1 x_1,2_ + 0.00011619911872827967 u_1,1_ + 0.00012197622602822021 u_1,2_ = 3.064783693773768
Dynamics_11: 1 x_2,2_ + 3.6170570431390343e-6 u_1,1_ + 1.2432005842664846e-6 u_1,2_ = 3.0013219900746546
Dynamics_12: 1 x_3,2_ + 0.0001379004205808608 u_2,1_ + 0.00014581844320778542 u_2,2_ = 4.063553025488656
Dynamics_13: 1 x_4,2_ + 5.546302942517438e-6 u_2,1_ + 1.9176209149584723e-6 u_2,2_ = 4.0016719189440755
Dynamics_14: 1 x_5,2_ + 9.409462637697195e-5 u_3,1_ + 9.797989372063993e-5 u_3,2_ = 3.065305336833188
Dynamics_15: 1 x_6,2_ + 2.6736621891784464e-6 u_3,1_ + 9.149807652612172e-7 u_3,2_ = 3.001220138604509
Dynamics_16: 1 x_7,2_ + 0.00012599544358623665 u_4,1_ + 0.00013279111380876888 u_4,2_ = 5.069872370496652
Dynamics_17: 1 x_8,2_ + 4.438738952597104e-6 u_4,1_ + 1.5301711624557482e-6 u_4,2_ = 5.001611605731063
Dynamics_18: 1 x_9,2_ + 0.9287401490888685 __freezer_1_ + 1.0020721792423641 __freezer_2_ = -18.771082890353046
Dynamics_19: 1 x_10,2_ + 0.055678906532887665 __freezer_1_ + 0.01953636599408992 __freezer_2_ = -18.991082477289204
Dynamics_20: 1 x_1,3_ + 0.00011080724053992854 u_1,1_ + 0.00011619911872827967 u_1,2_ + 0.00012197622602822021 u_1,3_ = 3.0949232632006285
Dynamics_21: 1 x_2,3_ + 5.830600113568727e-6 u_1,1_ + 3.6170570431390343e-6 u_1,2_ + 1.2432005842664846e-6 u_1,3_ = 3.0029079133055454
Dynamics_22: 1 x_3,3_ + 0.00013061002381458987 u_2,1_ + 0.0001379004205808608 u_2,2_ + 0.00014581844320778542 u_2,3_ = 4.092809670823124
Dynamics_23: 1 x_4,3_ + 8.883715386062156e-6 u_2,1_ + 5.546302942517438e-6 u_2,2_ + 1.9176209149584723e-6 u_2,3_ = 4.003661871190553
Dynamics_24: 1 x_5,3_ + 9.043172171810546e-5 u_3,1_ + 9.409462637697195e-5 u_3,2_ + 9.797989372063993e-5 u_3,3_ = 3.096052122217344
Dynamics_25: 1 x_6,3_ + 4.330049942676789e-6 u_3,1_ + 2.6736621891784464e-6 u_3,2_ + 9.149807652612172e-7 u_3,3_ = 3.0026923555850193
Dynamics_26: 1 x_7,3_ + 0.0001196949607202092 u_4,1_ + 0.00012599544358623665 u_4,2_ + 0.00013279111380876888 u_4,3_ = 5.102190009891108
Dynamics_27: 1 x_8,3_ + 7.132190517240724e-6 u_4,1_ + 4.438738952597104e-6 u_4,2_ + 1.5301711624557482e-6 u_4,3_ = 5.003537297170719
Dynamics_28: 1 x_9,3_ + 0.8634620738225834 __freezer_1_ + 0.9287401490888685 __freezer_2_ + 1.0020721792423641 __freezer_3_ = -18.66871082688064
Dynamics_29: 1 x_10,3_ + 0.08779215356946692 __freezer_1_ + 0.055678906532887665 __freezer_2_ + 0.01953636599408992 __freezer_3_ = -18.98067383956201
Dynamics_30: 1 x_1,4_ + 0.00010577481094379167 u_1,1_ + 0.00011080724053992854 u_1,2_ + 0.00011619911872827967 u_1,3_ + 0.00012197622602822021 u_1,4_ = 3.12369401177734
Dynamics_31: 1 x_2,4_ + 7.894559569533068e-6 u_1,1_ + 5.830600113568727e-6 u_1,2_ + 3.6170570431390343e-6 u_1,3_ + 1.2432005842664846e-6 u_1,4_ = 3.0050552335084584
Dynamics_32: 1 x_3,4_ + 0.00012389731106689719 u_2,1_ + 0.00013061002381458987 u_2,2_ + 0.0001379004205808608 u_2,3_ + 0.00014581844320778542 u_2,4_ = 4.120562668502109
Dynamics_33: 1 x_4,4_ + 1.1953037765271339e-5 u_2,1_ + 8.883715386062156e-6 u_2,2_ + 5.546302942517438e-6 u_2,3_ + 1.9176209149584723e-6 u_2,4_ = 4.006339351649974
Dynamics_34: 1 x_5,4_ + 8.697839100817889e-5 u_3,1_ + 9.043172171810546e-5 u_3,2_ + 9.409462637697195e-5 u_3,3_ + 9.797989372063993e-5 u_3,4_ = 3.1256247751601243
Dynamics_35: 1 x_6,4_ + 5.890028275984905e-6 u_3,1_ + 4.330049942676789e-6 u_3,2_ + 2.6736621891784464e-6 u_3,3_ + 9.149807652612172e-7 u_3,4_ = 3.0046949651988535
Dynamics_36: 1 x_7,4_ + 0.00011385342518976574 u_4,1_ + 0.0001196949607202092 u_4,2_ + 0.00012599544358623665 u_4,3_ + 0.00013279111380876888 u_4,4_ = 5.132930434692345
Dynamics_37: 1 x_8,4_ + 9.62627139143051e-6 u_4,1_ + 7.132190517240724e-6 u_4,2_ + 4.438738952597104e-6 u_4,3_ + 1.5301711624557482e-6 u_4,4_ = 5.006136390446405
Dynamics_38: 1 x_9,4_ + 0.8053491207575664 __freezer_1_ + 0.8634620738225834 __freezer_2_ + 0.9287401490888685 __freezer_3_ + 1.0020721792423641 __freezer_4_ = -18.573228635123623
Dynamics_39: 1 x_10,4_ + 0.11632084248295055 __freezer_1_ + 0.08779215356946692 __freezer_2_ + 0.055678906532887665 __freezer_3_ + 0.01953636599408992 __freezer_4_ = -18.96688284047723
Dynamics_40: 1 x_1,5_ + 0.00010107777477356832 u_1,1_ + 0.00010577481094379167 u_1,2_ + 0.00011080724053992854 u_1,3_ + 0.00011619911872827967 u_1,4_ + 0.00012197622602822021 u_1,5_ = 3.1511871665157503
Dynamics_41: 1 x_2,5_ + 9.818947097592675e-6 u_1,1_ + 7.894559569533068e-6 u_1,2_ + 5.830600113568727e-6 u_1,3_ + 3.6170570431390343e-6 u_1,4_ + 1.2432005842664846e-6 u_1,5_ = 3.0077259871190036
Dynamics_42: 1 x_3,5_ + 0.00011771631462835319 u_2,1_ + 0.00012389731106689719 u_2,2_ + 0.00013061002381458987 u_2,3_ + 0.0001379004205808608 u_2,4_ + 0.00014581844320778542 u_2,5_ = 4.14693112297886
Dynamics_43: 1 x_4,5_ + 1.4775605083024176e-5 u_2,1_ + 1.1953037765271339e-5 u_2,2_ + 8.883715386062156e-6 u_2,3_ + 5.546302942517438e-6 u_2,4_ + 1.9176209149584723e-6 u_2,5_ = 4.0096490871885715
Dynamics_44: 1 x_5,5_ + 8.372258106888394e-5 u_3,1_ + 8.697839100817889e-5 u_3,2_ + 9.043172171810546e-5 u_3,3_ + 9.409462637697195e-5 u_3,4_ + 9.797989372063993e-5 u_3,5_ = 3.154090452723545
Dynamics_45: 1 x_6,5_ + 7.359142999854972e-6 u_3,1_ + 5.890028275984905e-6 u_3,2_ + 4.330049942676789e-6 u_3,3_ + 2.6736621891784464e-6 u_3,4_ + 9.149807652612172e-7 u_3,5_ = 3.0071970738188045
Dynamics_46: 1 x_7,5_ + 0.00010843724929741286 u_4,1_ + 0.00011385342518976574 u_4,2_ + 0.0001196949607202092 u_4,3_ + 0.00012599544358623665 u_4,4_ + 0.00013279111380876888 u_4,5_ = 5.162208492002646
Dynamics_47: 1 x_8,5_ + 1.1935574729107023e-5 u_4,1_ + 9.62627139143051e-6 u_4,2_ + 7.132190517240724e-6 u_4,3_ + 4.438738952597104e-6 u_4,4_ + 1.5301711624557482e-6 u_4,5_ = 5.009358995623264
Dynamics_48: 1 x_9,5_ + 0.7536105531246812 __freezer_1_ + 0.8053491207575664 __freezer_2_ + 0.8634620738225834 __freezer_3_ + 0.9287401490888685 __freezer_4_ + 1.0020721792423641 __freezer_5_ = -18.48388056794516
Dynamics_49: 1 x_10,5_ + 0.1416606254167096 __freezer_1_ + 0.11632084248295055 __freezer_2_ + 0.08779215356946692 __freezer_3_ + 0.055678906532887665 __freezer_4_ + 0.01953636599408992 __freezer_5_ = -18.950087556727826
Dynamics_50: 1 x_1,6_ + 9.669368674729315e-5 u_1,1_ + 0.00010107777477356832 u_1,2_ + 0.00010577481094379167 u_1,3_ + 0.00011080724053992854 u_1,4_ + 0.00011619911872827967 u_1,5_ + 0.00012197622602822021 u_1,6_ = 3.1774878493110137
Dynamics_51: 1 x_2,6_ + 1.1613104354677437e-5 u_1,1_ + 9.818947097592675e-6 u_1,2_ + 7.894559569533068e-6 u_1,3_ + 5.830600113568727e-6 u_1,4_ + 3.6170570431390343e-6 u_1,5_ + 1.2432005842664846e-6 u_1,6_ = 3.0108847515034767
Dynamics_52: 1 x_3,6_ + 0.0001120247246796429 u_2,1_ + 0.00011771631462835319 u_2,2_ + 0.00012389731106689719 u_2,3_ + 0.00013061002381458987 u_2,4_ + 0.0001379004205808608 u_2,5_ + 0.00014581844320778542 u_2,6_ = 4.172024661307101
Dynamics_53: 1 x_4,6_ + 1.7371054603255633e-5 u_2,1_ + 1.4775605083024176e-5 u_2,2_ + 1.1953037765271339e-5 u_2,3_ + 8.883715386062156e-6 u_2,4_ + 5.546302942517438e-6 u_2,5_ + 1.9176209149584723e-6 u_2,6_ = 4.013540203419701
Dynamics_54: 1 x_5,6_ + 8.065293197307665e-5 u_3,1_ + 8.372258106888394e-5 u_3,2_ + 8.697839100817889e-5 u_3,3_ + 9.043172171810546e-5 u_3,4_ + 9.409462637697195e-5 u_3,5_ + 9.797989372063993e-5 u_3,6_ = 3.1815124495943903
Dynamics_55: 1 x_6,6_ + 8.742620951275931e-6 u_3,1_ + 7.359142999854972e-6 u_3,2_ + 5.890028275984905e-6 u_3,3_ + 4.330049942676789e-6 u_3,4_ + 2.6736621891784464e-6 u_3,5_ + 9.149807652612172e-7 u_3,6_ = 3.010169564942238
Dynamics_56: 1 x_7,6_ + 0.00010341530355157211 u_4,1_ + 0.00010843724929741286 u_4,2_ + 0.00011385342518976574 u_4,3_ + 0.0001196949607202092 u_4,4_ + 0.00012599544358623665 u_4,5_ + 0.00013279111380876888 u_4,6_ = 5.429154628817355
Dynamics_57: 1 x_8,6_ + 1.4073625643257844e-5 u_4,1_ + 1.1935574729107023e-5 u_4,2_ + 9.62627139143051e-6 u_4,3_ + 7.132190517240724e-6 u_4,4_ + 4.438738952597104e-6 u_4,5_ + 1.5301711624557482e-6 u_4,6_ = 5.015913182639364
Dynamics_58: 1 x_9,6_ + 0.7075429037222712 __freezer_1_ + 0.7536105531246812 __freezer_2_ + 0.8053491207575664 __freezer_3_ + 0.8634620738225834 __freezer_4_ + 0.9287401490888685 __freezer_5_ + 1.0020721792423641 __freezer_6_ = -18.39999428127985
Dynamics_59: 1 x_10,6_ + 0.1641634883464796 __freezer_1_ + 0.1416606254167096 __freezer_2_ + 0.11632084248295055 __freezer_3_ + 0.08779215356946692 __freezer_4_ + 0.055678906532887665 __freezer_5_ + 0.01953636599408992 __freezer_6_ = -18.930624333549467
Dynamics_60: 1 x_1,7_ + 9.260160372630836e-5 u_1,1_ + 9.669368674729315e-5 u_1,2_ + 0.00010107777477356832 u_1,3_ + 0.00010577481094379167 u_1,4_ + 0.00011080724053992854 u_1,5_ + 0.00011619911872827967 u_1,6_ + 0.00012197622602822021 u_1,7_ = 3.2026754855245696
Dynamics_61: 1 x_2,7_ + 1.3285747809619715e-5 u_1,1_ + 1.1613104354677437e-5 u_1,2_ + 9.818947097592675e-6 u_1,3_ + 7.894559569533068e-6 u_1,4_ + 5.830600113568727e-6 u_1,5_ + 3.6170570431390343e-6 u_1,6_ + 1.2432005842664846e-6 u_1,7_ = 3.014498474907693
Dynamics_62: 1 x_3,7_ + 0.00010678359821410738 u_2,1_ + 0.0001120247246796429 u_2,2_ + 0.00011771631462835319 u_2,3_ + 0.00012389731106689719 u_2,4_ + 0.00013061002381458987 u_2,5_ + 0.0001379004205808608 u_2,6_ + 0.00014581844320778542 u_2,7_ = 4.195944187307061
Dynamics_63: 1 x_4,7_ + 1.9757460948929685e-5 u_2,1_ + 1.7371054603255633e-5 u_2,2_ + 1.4775605083024176e-5 u_2,3_ + 1.1953037765271339e-5 u_2,4_ + 8.883715386062156e-6 u_2,5_ + 5.546302942517438e-6 u_2,6_ + 1.9176209149584723e-6 u_2,7_ = 4.017965874672262
Dynamics_64: 1 x_5,7_ + 7.775873717168633e-5 u_3,1_ + 8.065293197307665e-5 u_3,2_ + 8.372258106888394e-5 u_3,3_ + 8.697839100817889e-5 u_3,4_ + 9.043172171810546e-5 u_3,5_ + 9.409462637697195e-5 u_3,6_ + 9.797989372063993e-5 u_3,7_ = 3.207950420232764
Dynamics_65: 1 x_6,7_ + 1.0045388339595152e-5 u_3,1_ + 8.742620951275931e-6 u_3,2_ + 7.359142999854972e-6 u_3,3_ + 5.890028275984905e-6 u_3,4_ + 4.330049942676789e-6 u_3,5_ + 2.6736621891784464e-6 u_3,6_ + 9.149807652612172e-7 u_3,7_ = 3.0135849969777
Dynamics_66: 1 x_7,7_ + 9.87587367560863e-5 u_4,1_ + 0.00010341530355157211 u_4,2_ + 0.00010843724929741286 u_4,3_ + 0.00011385342518976574 u_4,4_ + 0.0001196949607202092 u_4,5_ + 0.00012599544358623665 u_4,6_ + 0.00013279111380876888 u_4,7_ = 5.44358728134094
Dynamics_67: 1 x_8,7_ + 1.605295937340434e-5 u_4,1_ + 1.4073625643257844e-5 u_4,2_ + 1.1935574729107023e-5 u_4,3_ + 9.62627139143051e-6 u_4,4_ + 7.132190517240724e-6 u_4,5_ + 4.438738952597104e-6 u_4,6_ + 1.5301711624557482e-6 u_4,7_ = 5.0254829036924376
Dynamics_68: 1 x_9,7_ + 0.6665203434161603 __freezer_1_ + 0.7075429037222712 __freezer_2_ + 0.7536105531246812 __freezer_3_ + 0.8053491207575664 __freezer_4_ + 0.8634620738225834 __freezer_5_ + 0.9287401490888685 __freezer_6_ + 1.0020721792423641 __freezer_7_ = -18.32097162936443
Dynamics_69: 1 x_10,7_ + 0.18414257029411246 __freezer_1_ + 0.1641634883464796 __freezer_2_ + 0.1416606254167096 __freezer_3_ + 0.11632084248295055 __freezer_4_ + 0.08779215356946692 __freezer_5_ + 0.055678906532887665 __freezer_6_ + 0.01953636599408992 __freezer_7_ = -18.908792390415396
Dynamics_70: 1 x_1,8_ + 8.878198418477178e-5 u_1,1_ + 9.260160372630836e-5 u_1,2_ + 9.669368674729315e-5 u_1,3_ + 0.00010107777477356832 u_1,4_ + 0.00010577481094379167 u_1,5_ + 0.00011080724053992854 u_1,6_ + 0.00011619911872827967 u_1,7_ + 0.00012197622602822021 u_1,8_ = 3.226824185222828
Dynamics_71: 1 x_2,8_ + 1.4845010583681307e-5 u_1,1_ + 1.3285747809619715e-5 u_1,2_ + 1.1613104354677437e-5 u_1,3_ + 9.818947097592675e-6 u_1,4_ + 7.894559569533068e-6 u_1,5_ + 5.830600113568727e-6 u_1,6_ + 3.6170570431390343e-6 u_1,7_ + 1.2432005842664846e-6 u_1,8_ = 3.0185363177864546
Dynamics_72: 1 x_3,8_ + 0.00010195709112284218 u_2,1_ + 0.00010678359821410738 u_2,2_ + 0.0001120247246796429 u_2,3_ + 0.00011771631462835319 u_2,4_ + 0.00012389731106689719 u_2,5_ + 0.00013061002381458987 u_2,6_ + 0.0001379004205808608 u_2,7_ + 0.00014581844320778542 u_2,8_ = 4.218782575718578
Dynamics_73: 1 x_4,8_ + 2.195146044955981e-5 u_2,1_ + 1.9757460948929685e-5 u_2,2_ + 1.7371054603255633e-5 u_2,3_ + 1.4775605083024176e-5 u_2,4_ + 1.1953037765271339e-5 u_2,5_ + 8.883715386062156e-6 u_2,6_ + 5.546302942517438e-6 u_2,7_ + 1.9176209149584723e-6 u_2,8_ = 4.022883001812963
Dynamics_74: 1 x_5,8_ + 7.502990591396845e-5 u_3,1_ + 7.775873717168633e-5 u_3,2_ + 8.065293197307665e-5 u_3,3_ + 8.372258106888394e-5 u_3,4_ + 8.697839100817889e-5 u_3,5_ + 9.043172171810546e-5 u_3,6_ + 9.409462637697195e-5 u_3,7_ + 9.797989372063993e-5 u_3,8_ = 3.233460588243514
Dynamics_75: 1 x_6,8_ + 1.1272088037443048e-5 u_3,1_ + 1.0045388339595152e-5 u_3,2_ + 8.742620951275931e-6 u_3,3_ + 7.359142999854972e-6 u_3,4_ + 5.890028275984905e-6 u_3,5_ + 4.330049942676789e-6 u_3,6_ + 2.6736621891784464e-6 u_3,7_ + 9.149807652612172e-7 u_3,8_ = 3.017417506910431
Dynamics_76: 1 x_7,8_ + 9.444080926696526e-5 u_4,1_ + 9.87587367560863e-5 u_4,2_ + 0.00010341530355157211 u_4,3_ + 0.00010843724929741286 u_4,4_ + 0.00011385342518976574 u_4,5_ + 0.0001196949607202092 u_4,6_ + 0.00012599544358623665 u_4,7_ + 0.00013279111380876888 u_4,8_ = 5.457745430684171
Dynamics_77: 1 x_8,8_ + 1.7885193732188026e-5 u_4,1_ + 1.605295937340434e-5 u_4,2_ + 1.4073625643257844e-5 u_4,3_ + 1.1935574729107023e-5 u_4,4_ + 9.62627139143051e-6 u_4,5_ + 7.132190517240724e-6 u_4,6_ + 4.438738952597104e-6 u_4,7_ + 1.5301711624557482e-6 u_4,8_ = 5.035160118816486
Dynamics_78: 1 x_9,8_ + 0.6299861126195135 __freezer_1_ + 0.6665203434161603 __freezer_2_ + 0.7075429037222712 __freezer_3_ + 0.7536105531246812 __freezer_4_ + 0.8053491207575664 __freezer_5_ + 0.8634620738225834 __freezer_6_ + 0.9287401490888685 __freezer_7_ + 1.0020721792423641 __freezer_8_ = -18.24628047585226
Dynamics_79: 1 x_10,8_ + 0.20187645066912116 __freezer_1_ + 0.18414257029411246 __freezer_2_ + 0.1641634883464796 __freezer_3_ + 0.1416606254167096 __freezer_4_ + 0.11632084248295055 __freezer_5_ + 0.08779215356946692 __freezer_6_ + 0.055678906532887665 __freezer_7_ + 0.01953636599408992 __freezer_8_ = -18.884857918424064
Power_alloc_fridge_1_: 1 u_1,1_ + 1 u_2,1_ + 1 u_3,1_ + 1 u_4,1_ - 1 p1_1_ - 5000 __fridge_1_ = 0
Power_alloc_fridge_2_: 1 u_1,2_ + 1 u_2,2_ + 1 u_3,2_ + 1 u_4,2_ - 1 p1_2_ - 5000 __fridge_2_ = 0
Power_alloc_fridge_3_: 1 u_1,3_ + 1 u_2,3_ + 1 u_3,3_ + 1 u_4,3_ - 1 p1_3_ - 5000 __fridge_3_ = 0
Power_alloc_fridge_4_: 1 u_1,4_ + 1 u_2,4_ + 1 u_3,4_ + 1 u_4,4_ - 1 p1_4_ - 5000 __fridge_4_ = 0
Power_alloc_fridge_5_: 1 u_1,5_ + 1 u_2,5_ + 1 u_3,5_ + 1 u_4,5_ - 1 p1_5_ - 5000 __fridge_5_ = 0
Power_alloc_fridge_6_: 1 u_1,6_ + 1 u_2,6_ + 1 u_3,6_ + 1 u_4,6_ - 1 p1_6_ - 5000 __fridge_6_ = 0
Power_alloc_fridge_7_: 1 u_1,7_ + 1 u_2,7_ + 1 u_3,7_ + 1 u_4,7_ - 1 p1_7_ - 5000 __fridge_7_ = 0
Power_alloc_fridge_8_: 1 u_1,8_ + 1 u_2,8_ + 1 u_3,8_ + 1 u_4,8_ - 1 p1_8_ - 5000 __fridge_8_ = 0
Power_balance_1_: -1 p1_1_ - 5000 __fridge_1_ - 5000 __freezer_1_ + 1 p_buy_1_ + 1 PVused_1_ = 0
Power_balance_2_: -1 p1_2_ - 5000 __fridge_2_ - 5000 __freezer_2_ + 1 p_buy_2_ + 1 PVused_2_ = 0
Power_balance_3_: -1 p1_3_ - 5000 __fridge_3_ - 5000 __freezer_3_ + 1 p_buy_3_ + 1 PVused_3_ = 0
Power_balance_4_: -1 p1_4_ - 5000 __fridge_4_ - 5000 __freezer_4_ + 1 p_buy_4_ + 1 PVused_4_ = 0
Power_balance_5_: -1 p1_5_ - 5000 __fridge_5_ - 5000 __freezer_5_ + 1 p_buy_5_ + 1 PVused_5_ = 0
Power_balance_6_: -1 p1_6_ - 5000 __fridge_6_ - 5000 __freezer_6_ + 1 p_buy_6_ + 1 PVused_6_ = 0
Power_balance_7_: -1 p1_7_ - 5000 __fridge_7_ - 5000 __freezer_7_ + 1 p_buy_7_ + 1 PVused_7_ = 0
Power_balance_8_: -1 p1_8_ - 5000 __fridge_8_ - 5000 __freezer_8_ + 1 p_buy_8_ + 1 PVused_8_ = 0
Setpoints_limits_1,1_: 2 <= 1 sp_1,1_ <= 8
Setpoints_limits_2,1_: 2 <= 1 sp_2,1_ <= 7
Setpoints_limits_3,1_: 2 <= 1 sp_3,1_ <= 5
Setpoints_limits_4,1_: 2 <= 1 sp_4,1_ <= 7
Setpoints_limits_5,1_: -40 <= 1 sp_5,1_ <= -18
Setpoints_limits_1,2_: 2 <= 1 sp_1,2_ <= 8
Setpoints_limits_2,2_: 2 <= 1 sp_2,2_ <= 7
Setpoints_limits_3,2_: 2 <= 1 sp_3,2_ <= 5
Setpoints_limits_4,2_: 2 <= 1 sp_4,2_ <= 7
Setpoints_limits_5,2_: -40 <= 1 sp_5,2_ <= -18
Setpoints_limits_1,3_: 2 <= 1 sp_1,3_ <= 8
Setpoints_limits_2,3_: 2 <= 1 sp_2,3_ <= 7
Setpoints_limits_3,3_: 2 <= 1 sp_3,3_ <= 5
Setpoints_limits_4,3_: 2 <= 1 sp_4,3_ <= 7
Setpoints_limits_5,3_: -40 <= 1 sp_5,3_ <= -18
Setpoints_limits_1,4_: 2 <= 1 sp_1,4_ <= 8
Setpoints_limits_2,4_: 2 <= 1 sp_2,4_ <= 7
Setpoints_limits_3,4_: 2 <= 1 sp_3,4_ <= 5
Setpoints_limits_4,4_: 2 <= 1 sp_4,4_ <= 7
Setpoints_limits_5,4_: -40 <= 1 sp_5,4_ <= -18
Setpoints_limits_1,5_: 2 <= 1 sp_1,5_ <= 8
Setpoints_limits_2,5_: 2 <= 1 sp_2,5_ <= 7
Setpoints_limits_3,5_: 2 <= 1 sp_3,5_ <= 5
Setpoints_limits_4,5_: 2 <= 1 sp_4,5_ <= 7
Setpoints_limits_5,5_: -40 <= 1 sp_5,5_ <= -18
Setpoints_limits_1,6_: 2 <= 1 sp_1,6_ <= 8
Setpoints_limits_2,6_: 2 <= 1 sp_2,6_ <= 7
Setpoints_limits_3,6_: 2 <= 1 sp_3,6_ <= 5
Setpoints_limits_4,6_: 2 <= 1 sp_4,6_ <= 7
Setpoints_limits_5,6_: -40 <= 1 sp_5,6_ <= -18
Setpoints_limits_1,7_: 2 <= 1 sp_1,7_ <= 8
Setpoints_limits_2,7_: 2 <= 1 sp_2,7_ <= 7
Setpoints_limits_3,7_: 2 <= 1 sp_3,7_ <= 5
Setpoints_limits_4,7_: 2 <= 1 sp_4,7_ <= 7
Setpoints_limits_5,7_: -40 <= 1 sp_5,7_ <= -18
Setpoints_limits_1,8_: 2 <= 1 sp_1,8_ <= 8
Setpoints_limits_2,8_: 2 <= 1 sp_2,8_ <= 7
Setpoints_limits_3,8_: 2 <= 1 sp_3,8_ <= 5
Setpoints_limits_4,8_: 2 <= 1 sp_4,8_ <= 7
Setpoints_limits_5,8_: -40 <= 1 sp_5,8_ <= -18
Bounds
x_1,1_ free
x_2,1_ free
x_3,1_ free
x_4,1_ free
x_5,1_ free
x_6,1_ free
x_7,1_ free
x_8,1_ free
x_9,1_ free
x_10,1_ free
x_1,2_ free
x_2,2_ free
x_3,2_ free
x_4,2_ free
x_5,2_ free
x_6,2_ free
x_7,2_ free
x_8,2_ free
x_9,2_ free
x_10,2_ free
x_1,3_ free
x_2,3_ free
x_3,3_ free
x_4,3_ free
x_5,3_ free
x_6,3_ free
x_7,3_ free
x_8,3_ free
x_9,3_ free
x_10,3_ free
x_1,4_ free
x_2,4_ free
x_3,4_ free
x_4,4_ free
x_5,4_ free
x_6,4_ free
x_7,4_ free
x_8,4_ free
x_9,4_ free
x_10,4_ free
x_1,5_ free
x_2,5_ free
x_3,5_ free
x_4,5_ free
x_5,5_ free
x_6,5_ free
x_7,5_ free
x_8,5_ free
x_9,5_ free
x_10,5_ free
x_1,6_ free
x_2,6_ free
x_3,6_ free
x_4,6_ free
x_5,6_ free
x_6,6_ free
x_7,6_ free
x_8,6_ free
x_9,6_ free
x_10,6_ free
x_1,7_ free
x_2,7_ free
x_3,7_ free
x_4,7_ free
x_5,7_ free
x_6,7_ free
x_7,7_ free
x_8,7_ free
x_9,7_ free
x_10,7_ free
x_1,8_ free
x_2,8_ free
x_3,8_ free
x_4,8_ free
x_5,8_ free
x_6,8_ free
x_7,8_ free
x_8,8_ free
x_9,8_ free
x_10,8_ free
sp_1,1_ free
sp_2,1_ free
sp_3,1_ free
sp_4,1_ free
sp_5,1_ free
sp_1,2_ free
sp_2,2_ free
sp_3,2_ free
sp_4,2_ free
sp_5,2_ free
sp_1,3_ free
sp_2,3_ free
sp_3,3_ free
sp_4,3_ free
sp_5,3_ free
sp_1,4_ free
sp_2,4_ free
sp_3,4_ free
sp_4,4_ free
sp_5,4_ free
sp_1,5_ free
sp_2,5_ free
sp_3,5_ free
sp_4,5_ free
sp_5,5_ free
sp_1,6_ free
sp_2,6_ free
sp_3,6_ free
sp_4,6_ free
sp_5,6_ free
sp_1,7_ free
sp_2,7_ free
sp_3,7_ free
sp_4,7_ free
sp_5,7_ free
sp_1,8_ free
sp_2,8_ free
sp_3,8_ free
sp_4,8_ free
sp_5,8_ free
u_1,1_ >= 0
u_2,1_ >= 0
u_3,1_ >= 0
u_4,1_ >= 0
u_1,2_ >= 0
u_2,2_ >= 0
u_3,2_ >= 0
u_4,2_ >= 0
u_1,3_ >= 0
u_2,3_ >= 0
u_3,3_ >= 0
u_4,3_ >= 0
u_1,4_ >= 0
u_2,4_ >= 0
u_3,4_ >= 0
u_4,4_ >= 0
u_1,5_ >= 0
u_2,5_ >= 0
u_3,5_ >= 0
u_4,5_ >= 0
u_1,6_ >= 0
u_2,6_ >= 0
u_3,6_ >= 0
u_4,6_ >= 0
u_1,7_ >= 0
u_2,7_ >= 0
u_3,7_ >= 0
u_4,7_ >= 0
u_1,8_ >= 0
u_2,8_ >= 0
u_3,8_ >= 0
u_4,8_ >= 0
u_req_1,1_ >= 0
u_req_2,1_ >= 0
u_req_3,1_ >= 0
u_req_4,1_ >= 0
u_req_1,2_ >= 0
u_req_2,2_ >= 0
u_req_3,2_ >= 0
u_req_4,2_ >= 0
u_req_1,3_ >= 0
u_req_2,3_ >= 0
u_req_3,3_ >= 0
u_req_4,3_ >= 0
u_req_1,4_ >= 0
u_req_2,4_ >= 0
u_req_3,4_ >= 0
u_req_4,4_ >= 0
u_req_1,5_ >= 0
u_req_2,5_ >= 0
u_req_3,5_ >= 0
u_req_4,5_ >= 0
u_req_1,6_ >= 0
u_req_2,6_ >= 0
u_req_3,6_ >= 0
u_req_4,6_ >= 0
u_req_1,7_ >= 0
u_req_2,7_ >= 0
u_req_3,7_ >= 0
u_req_4,7_ >= 0
u_req_1,8_ >= 0
u_req_2,8_ >= 0
u_req_3,8_ >= 0
u_req_4,8_ >= 0
0 <= p1_1_ <= 5000
0 <= p1_2_ <= 5000
0 <= p1_3_ <= 5000
0 <= p1_4_ <= 5000
0 <= p1_5_ <= 5000
0 <= p1_6_ <= 5000
0 <= p1_7_ <= 5000
0 <= p1_8_ <= 5000
0 <= p_buy_1_ <= 1000000
0 <= p_buy_2_ <= 1000000
0 <= p_buy_3_ <= 1000000
0 <= p_buy_4_ <= 1000000
0 <= p_buy_5_ <= 1000000
0 <= p_buy_6_ <= 1000000
0 <= p_buy_7_ <= 1000000
0 <= p_buy_8_ <= 1000000
0 <= p_sell_1_ <= 1000000
0 <= p_sell_2_ <= 1000000
0 <= p_sell_3_ <= 1000000
0 <= p_sell_4_ <= 1000000
0 <= p_sell_5_ <= 1000000
0 <= p_sell_6_ <= 1000000
0 <= p_sell_7_ <= 1000000
0 <= p_sell_8_ <= 1000000
PVused_1_ >= 0
PVused_2_ >= 0
PVused_3_ >= 0
PVused_4_ >= 0
PVused_5_ >= 0
PVused_6_ >= 0
PVused_7_ >= 0
PVused_8_ >= 0
PVcurt_1_ >= 0
PVcurt_2_ >= 0
PVcurt_3_ >= 0
PVcurt_4_ >= 0
PVcurt_5_ >= 0
PVcurt_6_ >= 0
PVcurt_7_ >= 0
PVcurt_8_ >= 0
Binary
__fridge_1_
__fridge_2_
__fridge_3_
__fridge_4_
__fridge_5_
__fridge_6_
__fridge_7_
__fridge_8_
__freezer_1_
__freezer_2_
__freezer_3_
__freezer_4_
__freezer_5_
__freezer_6_
__freezer_7_
__freezer_8_
End
